
(set-logic HORN)
(declare-datatypes ((Bool_97 0)) (((false_97) (true_97))))
(declare-fun diseqBool_45 (Bool_97 Bool_97) Bool)
(declare-fun isfalse_45 (Bool_97) Bool)
(declare-fun istrue_45 (Bool_97) Bool)
(assert (isfalse_45 false_97))
(assert (istrue_45 true_97))
(assert (diseqBool_45 false_97 true_97))
(assert (diseqBool_45 true_97 false_97))
(declare-fun and_97 (Bool_97 Bool_97 Bool_97) Bool)
(declare-fun or_98 (Bool_97 Bool_97 Bool_97) Bool)
(declare-fun hence_97 (Bool_97 Bool_97 Bool_97) Bool)
(declare-fun not_97 (Bool_97 Bool_97) Bool)
(assert (and_97 false_97 false_97 false_97))
(assert (and_97 false_97 true_97 false_97))
(assert (and_97 false_97 false_97 true_97))
(assert (and_97 true_97 true_97 true_97))
(assert (or_98 false_97 false_97 false_97))
(assert (or_98 true_97 true_97 false_97))
(assert (or_98 true_97 false_97 true_97))
(assert (or_98 true_97 true_97 true_97))
(assert (hence_97 true_97 false_97 false_97))
(assert (hence_97 false_97 true_97 false_97))
(assert (hence_97 true_97 false_97 true_97))
(assert (hence_97 true_97 true_97 true_97))
(assert (not_97 true_97 false_97))
(assert (not_97 false_97 true_97))
(declare-datatypes ((A_15 0)) (((X_9577) (Y_450))))
(declare-fun diseqA_2 (A_15 A_15) Bool)
(declare-fun isX_2 (A_15) Bool)
(declare-fun isY_2 (A_15) Bool)
(assert (isX_2 X_9577))
(assert (isY_2 Y_450))
(assert (diseqA_2 X_9577 Y_450))
(assert (diseqA_2 Y_450 X_9577))
(declare-datatypes ((R_107 0)) (((Nil_82) (Eps_4) (Atom_2 (projAtom_4 A_15)) (Plus_8 (projPlus_8 R_107) (projPlus_9 R_107)) (Seq_4 (projSeq_8 R_107) (projSeq_9 R_107)) (Star_2 (projStar_4 R_107)))))
(declare-fun diseqR_2 (R_107 R_107) Bool)
(declare-fun projAtom_5 (A_15 R_107) Bool)
(declare-fun projPlus_10 (R_107 R_107) Bool)
(declare-fun projPlus_11 (R_107 R_107) Bool)
(declare-fun projSeq_10 (R_107 R_107) Bool)
(declare-fun projSeq_11 (R_107 R_107) Bool)
(declare-fun projStar_5 (R_107 R_107) Bool)
(declare-fun isNil_82 (R_107) Bool)
(declare-fun isEps_2 (R_107) Bool)
(declare-fun isAtom_2 (R_107) Bool)
(declare-fun isPlus_2 (R_107) Bool)
(declare-fun isSeq_2 (R_107) Bool)
(declare-fun isStar_2 (R_107) Bool)
(assert (forall ((x_11692 A_15))
	(projAtom_5 x_11692 (Atom_2 x_11692))))
(assert (forall ((x_11694 R_107) (x_11695 R_107))
	(projPlus_10 x_11694 (Plus_8 x_11694 x_11695))))
(assert (forall ((x_11694 R_107) (x_11695 R_107))
	(projPlus_11 x_11695 (Plus_8 x_11694 x_11695))))
(assert (forall ((x_11697 R_107) (x_11698 R_107))
	(projSeq_10 x_11697 (Seq_4 x_11697 x_11698))))
(assert (forall ((x_11697 R_107) (x_11698 R_107))
	(projSeq_11 x_11698 (Seq_4 x_11697 x_11698))))
(assert (forall ((x_11700 R_107))
	(projStar_5 x_11700 (Star_2 x_11700))))
(assert (isNil_82 Nil_82))
(assert (isEps_2 Eps_4))
(assert (forall ((x_11702 A_15))
	(isAtom_2 (Atom_2 x_11702))))
(assert (forall ((x_11703 R_107) (x_11704 R_107))
	(isPlus_2 (Plus_8 x_11703 x_11704))))
(assert (forall ((x_11705 R_107) (x_11706 R_107))
	(isSeq_2 (Seq_4 x_11705 x_11706))))
(assert (forall ((x_11707 R_107))
	(isStar_2 (Star_2 x_11707))))
(assert (diseqR_2 Nil_82 Eps_4))
(assert (forall ((x_11708 A_15))
	(diseqR_2 Nil_82 (Atom_2 x_11708))))
(assert (forall ((x_11709 R_107) (x_11710 R_107))
	(diseqR_2 Nil_82 (Plus_8 x_11709 x_11710))))
(assert (forall ((x_11711 R_107) (x_11712 R_107))
	(diseqR_2 Nil_82 (Seq_4 x_11711 x_11712))))
(assert (forall ((x_11713 R_107))
	(diseqR_2 Nil_82 (Star_2 x_11713))))
(assert (diseqR_2 Eps_4 Nil_82))
(assert (forall ((x_11714 A_15))
	(diseqR_2 (Atom_2 x_11714) Nil_82)))
(assert (forall ((x_11715 R_107) (x_11716 R_107))
	(diseqR_2 (Plus_8 x_11715 x_11716) Nil_82)))
(assert (forall ((x_11717 R_107) (x_11718 R_107))
	(diseqR_2 (Seq_4 x_11717 x_11718) Nil_82)))
(assert (forall ((x_11719 R_107))
	(diseqR_2 (Star_2 x_11719) Nil_82)))
(assert (forall ((x_11720 A_15))
	(diseqR_2 Eps_4 (Atom_2 x_11720))))
(assert (forall ((x_11721 R_107) (x_11722 R_107))
	(diseqR_2 Eps_4 (Plus_8 x_11721 x_11722))))
(assert (forall ((x_11723 R_107) (x_11724 R_107))
	(diseqR_2 Eps_4 (Seq_4 x_11723 x_11724))))
(assert (forall ((x_11725 R_107))
	(diseqR_2 Eps_4 (Star_2 x_11725))))
(assert (forall ((x_11726 A_15))
	(diseqR_2 (Atom_2 x_11726) Eps_4)))
(assert (forall ((x_11727 R_107) (x_11728 R_107))
	(diseqR_2 (Plus_8 x_11727 x_11728) Eps_4)))
(assert (forall ((x_11729 R_107) (x_11730 R_107))
	(diseqR_2 (Seq_4 x_11729 x_11730) Eps_4)))
(assert (forall ((x_11731 R_107))
	(diseqR_2 (Star_2 x_11731) Eps_4)))
(assert (forall ((x_11732 A_15) (x_11733 R_107) (x_11734 R_107))
	(diseqR_2 (Atom_2 x_11732) (Plus_8 x_11733 x_11734))))
(assert (forall ((x_11735 A_15) (x_11736 R_107) (x_11737 R_107))
	(diseqR_2 (Atom_2 x_11735) (Seq_4 x_11736 x_11737))))
(assert (forall ((x_11738 A_15) (x_11739 R_107))
	(diseqR_2 (Atom_2 x_11738) (Star_2 x_11739))))
(assert (forall ((x_11740 R_107) (x_11741 R_107) (x_11742 A_15))
	(diseqR_2 (Plus_8 x_11740 x_11741) (Atom_2 x_11742))))
(assert (forall ((x_11743 R_107) (x_11744 R_107) (x_11745 A_15))
	(diseqR_2 (Seq_4 x_11743 x_11744) (Atom_2 x_11745))))
(assert (forall ((x_11746 R_107) (x_11747 A_15))
	(diseqR_2 (Star_2 x_11746) (Atom_2 x_11747))))
(assert (forall ((x_11748 R_107) (x_11749 R_107) (x_11750 R_107) (x_11751 R_107))
	(diseqR_2 (Plus_8 x_11748 x_11749) (Seq_4 x_11750 x_11751))))
(assert (forall ((x_11752 R_107) (x_11753 R_107) (x_11754 R_107))
	(diseqR_2 (Plus_8 x_11752 x_11753) (Star_2 x_11754))))
(assert (forall ((x_11755 R_107) (x_11756 R_107) (x_11757 R_107) (x_11758 R_107))
	(diseqR_2 (Seq_4 x_11755 x_11756) (Plus_8 x_11757 x_11758))))
(assert (forall ((x_11759 R_107) (x_11760 R_107) (x_11761 R_107))
	(diseqR_2 (Star_2 x_11759) (Plus_8 x_11760 x_11761))))
(assert (forall ((x_11762 R_107) (x_11763 R_107) (x_11764 R_107))
	(diseqR_2 (Seq_4 x_11762 x_11763) (Star_2 x_11764))))
(assert (forall ((x_11765 R_107) (x_11766 R_107) (x_11767 R_107))
	(diseqR_2 (Star_2 x_11765) (Seq_4 x_11766 x_11767))))
(assert (forall ((x_11768 A_15) (x_11769 A_15))
	(=> (diseqA_2 x_11768 x_11769) (diseqR_2 (Atom_2 x_11768) (Atom_2 x_11769)))))
(assert (forall ((x_11770 R_107) (x_11771 R_107) (x_11772 R_107) (x_11773 R_107))
	(=> (diseqR_2 x_11770 x_11772) (diseqR_2 (Plus_8 x_11770 x_11771) (Plus_8 x_11772 x_11773)))))
(assert (forall ((x_11770 R_107) (x_11771 R_107) (x_11772 R_107) (x_11773 R_107))
	(=> (diseqR_2 x_11771 x_11773) (diseqR_2 (Plus_8 x_11770 x_11771) (Plus_8 x_11772 x_11773)))))
(assert (forall ((x_11774 R_107) (x_11775 R_107) (x_11776 R_107) (x_11777 R_107))
	(=> (diseqR_2 x_11774 x_11776) (diseqR_2 (Seq_4 x_11774 x_11775) (Seq_4 x_11776 x_11777)))))
(assert (forall ((x_11774 R_107) (x_11775 R_107) (x_11776 R_107) (x_11777 R_107))
	(=> (diseqR_2 x_11775 x_11777) (diseqR_2 (Seq_4 x_11774 x_11775) (Seq_4 x_11776 x_11777)))))
(assert (forall ((x_11778 R_107) (x_11779 R_107))
	(=> (diseqR_2 x_11778 x_11779) (diseqR_2 (Star_2 x_11778) (Star_2 x_11779)))))
(declare-datatypes ((list_78 0)) (((nil_83) (cons_78 (head_156 A_15) (tail_156 list_78)))))
(declare-fun diseqlist_78 (list_78 list_78) Bool)
(declare-fun head_157 (A_15 list_78) Bool)
(declare-fun tail_157 (list_78 list_78) Bool)
(declare-fun isnil_83 (list_78) Bool)
(declare-fun iscons_78 (list_78) Bool)
(assert (forall ((x_11781 A_15) (x_11782 list_78))
	(head_157 x_11781 (cons_78 x_11781 x_11782))))
(assert (forall ((x_11781 A_15) (x_11782 list_78))
	(tail_157 x_11782 (cons_78 x_11781 x_11782))))
(assert (isnil_83 nil_83))
(assert (forall ((x_11784 A_15) (x_11785 list_78))
	(iscons_78 (cons_78 x_11784 x_11785))))
(assert (forall ((x_11786 A_15) (x_11787 list_78))
	(diseqlist_78 nil_83 (cons_78 x_11786 x_11787))))
(assert (forall ((x_11788 A_15) (x_11789 list_78))
	(diseqlist_78 (cons_78 x_11788 x_11789) nil_83)))
(assert (forall ((x_11790 A_15) (x_11791 list_78) (x_11792 A_15) (x_11793 list_78))
	(=> (diseqA_2 x_11790 x_11792) (diseqlist_78 (cons_78 x_11790 x_11791) (cons_78 x_11792 x_11793)))))
(assert (forall ((x_11790 A_15) (x_11791 list_78) (x_11792 A_15) (x_11793 list_78))
	(=> (diseqlist_78 x_11791 x_11793) (diseqlist_78 (cons_78 x_11790 x_11791) (cons_78 x_11792 x_11793)))))
(declare-fun seq_5 (R_107 R_107 R_107) Bool)
(assert (forall ((y_451 R_107))
	(seq_5 Nil_82 Nil_82 y_451)))
(assert (forall ((x_9579 R_107) (x_9826 A_15))
	(seq_5 Nil_82 (Atom_2 x_9826) Nil_82)))
(assert (forall ((x_9579 R_107))
	(seq_5 Nil_82 Eps_4 Nil_82)))
(assert (forall ((x_9579 R_107) (x_9827 R_107) (x_9828 R_107))
	(seq_5 Nil_82 (Plus_8 x_9827 x_9828) Nil_82)))
(assert (forall ((x_9579 R_107) (x_9829 R_107) (x_9830 R_107))
	(seq_5 Nil_82 (Seq_4 x_9829 x_9830) Nil_82)))
(assert (forall ((x_9579 R_107) (x_9831 R_107))
	(seq_5 Nil_82 (Star_2 x_9831) Nil_82)))
(assert (forall ((x_9580 R_107) (x_9640 A_15) (x_9579 R_107))
	(seq_5 (Atom_2 x_9640) Eps_4 (Atom_2 x_9640))))
(assert (forall ((x_9580 R_107) (x_9579 R_107))
	(seq_5 Eps_4 Eps_4 Eps_4)))
(assert (forall ((x_9580 R_107) (x_9641 R_107) (x_9642 R_107) (x_9579 R_107))
	(seq_5 (Plus_8 x_9641 x_9642) Eps_4 (Plus_8 x_9641 x_9642))))
(assert (forall ((x_9580 R_107) (x_9643 R_107) (x_9644 R_107) (x_9579 R_107))
	(seq_5 (Seq_4 x_9643 x_9644) Eps_4 (Seq_4 x_9643 x_9644))))
(assert (forall ((x_9580 R_107) (x_9645 R_107) (x_9579 R_107))
	(seq_5 (Star_2 x_9645) Eps_4 (Star_2 x_9645))))
(assert (forall ((x_9581 R_107) (x_9604 A_15) (x_9580 R_107) (x_9579 R_107))
	(seq_5 (Atom_2 x_9604) (Atom_2 x_9604) Eps_4)))
(assert (forall ((x_9581 R_107) (x_9605 R_107) (x_9606 R_107) (x_9580 R_107) (x_9579 R_107))
	(seq_5 (Plus_8 x_9605 x_9606) (Plus_8 x_9605 x_9606) Eps_4)))
(assert (forall ((x_9581 R_107) (x_9607 R_107) (x_9608 R_107) (x_9580 R_107) (x_9579 R_107))
	(seq_5 (Seq_4 x_9607 x_9608) (Seq_4 x_9607 x_9608) Eps_4)))
(assert (forall ((x_9581 R_107) (x_9609 R_107) (x_9580 R_107) (x_9579 R_107))
	(seq_5 (Star_2 x_9609) (Star_2 x_9609) Eps_4)))
(assert (forall ((x_9582 R_107) (x_9598 A_15) (x_9581 R_107) (x_9580 R_107) (x_9579 R_107) (x_10012 A_15))
	(seq_5 (Seq_4 (Atom_2 x_10012) (Atom_2 x_9598)) (Atom_2 x_10012) (Atom_2 x_9598))))
(assert (forall ((x_9582 R_107) (x_9598 A_15) (x_9581 R_107) (x_9580 R_107) (x_9579 R_107) (x_10073 R_107) (x_10074 R_107))
	(seq_5 (Seq_4 (Plus_8 x_10073 x_10074) (Atom_2 x_9598)) (Plus_8 x_10073 x_10074) (Atom_2 x_9598))))
(assert (forall ((x_9582 R_107) (x_9598 A_15) (x_9581 R_107) (x_9580 R_107) (x_9579 R_107) (x_10105 R_107) (x_10106 R_107))
	(seq_5 (Seq_4 (Seq_4 x_10105 x_10106) (Atom_2 x_9598)) (Seq_4 x_10105 x_10106) (Atom_2 x_9598))))
(assert (forall ((x_9582 R_107) (x_9598 A_15) (x_9581 R_107) (x_9580 R_107) (x_9579 R_107) (x_10137 R_107))
	(seq_5 (Seq_4 (Star_2 x_10137) (Atom_2 x_9598)) (Star_2 x_10137) (Atom_2 x_9598))))
(assert (forall ((x_9582 R_107) (x_9599 R_107) (x_9600 R_107) (x_9581 R_107) (x_9580 R_107) (x_9579 R_107) (x_10324 A_15))
	(seq_5 (Seq_4 (Atom_2 x_10324) (Plus_8 x_9599 x_9600)) (Atom_2 x_10324) (Plus_8 x_9599 x_9600))))
(assert (forall ((x_9582 R_107) (x_9599 R_107) (x_9600 R_107) (x_9581 R_107) (x_9580 R_107) (x_9579 R_107) (x_10385 R_107) (x_10386 R_107))
	(seq_5 (Seq_4 (Plus_8 x_10385 x_10386) (Plus_8 x_9599 x_9600)) (Plus_8 x_10385 x_10386) (Plus_8 x_9599 x_9600))))
(assert (forall ((x_9582 R_107) (x_9599 R_107) (x_9600 R_107) (x_9581 R_107) (x_9580 R_107) (x_9579 R_107) (x_10417 R_107) (x_10418 R_107))
	(seq_5 (Seq_4 (Seq_4 x_10417 x_10418) (Plus_8 x_9599 x_9600)) (Seq_4 x_10417 x_10418) (Plus_8 x_9599 x_9600))))
(assert (forall ((x_9582 R_107) (x_9599 R_107) (x_9600 R_107) (x_9581 R_107) (x_9580 R_107) (x_9579 R_107) (x_10449 R_107))
	(seq_5 (Seq_4 (Star_2 x_10449) (Plus_8 x_9599 x_9600)) (Star_2 x_10449) (Plus_8 x_9599 x_9600))))
(assert (forall ((x_9582 R_107) (x_9601 R_107) (x_9602 R_107) (x_9581 R_107) (x_9580 R_107) (x_9579 R_107) (x_10480 A_15))
	(seq_5 (Seq_4 (Atom_2 x_10480) (Seq_4 x_9601 x_9602)) (Atom_2 x_10480) (Seq_4 x_9601 x_9602))))
(assert (forall ((x_9582 R_107) (x_9601 R_107) (x_9602 R_107) (x_9581 R_107) (x_9580 R_107) (x_9579 R_107) (x_10541 R_107) (x_10542 R_107))
	(seq_5 (Seq_4 (Plus_8 x_10541 x_10542) (Seq_4 x_9601 x_9602)) (Plus_8 x_10541 x_10542) (Seq_4 x_9601 x_9602))))
(assert (forall ((x_9582 R_107) (x_9601 R_107) (x_9602 R_107) (x_9581 R_107) (x_9580 R_107) (x_9579 R_107) (x_10573 R_107) (x_10574 R_107))
	(seq_5 (Seq_4 (Seq_4 x_10573 x_10574) (Seq_4 x_9601 x_9602)) (Seq_4 x_10573 x_10574) (Seq_4 x_9601 x_9602))))
(assert (forall ((x_9582 R_107) (x_9601 R_107) (x_9602 R_107) (x_9581 R_107) (x_9580 R_107) (x_9579 R_107) (x_10605 R_107))
	(seq_5 (Seq_4 (Star_2 x_10605) (Seq_4 x_9601 x_9602)) (Star_2 x_10605) (Seq_4 x_9601 x_9602))))
(assert (forall ((x_9582 R_107) (x_9603 R_107) (x_9581 R_107) (x_9580 R_107) (x_9579 R_107) (x_10636 A_15))
	(seq_5 (Seq_4 (Atom_2 x_10636) (Star_2 x_9603)) (Atom_2 x_10636) (Star_2 x_9603))))
(assert (forall ((x_9582 R_107) (x_9603 R_107) (x_9581 R_107) (x_9580 R_107) (x_9579 R_107) (x_10697 R_107) (x_10698 R_107))
	(seq_5 (Seq_4 (Plus_8 x_10697 x_10698) (Star_2 x_9603)) (Plus_8 x_10697 x_10698) (Star_2 x_9603))))
(assert (forall ((x_9582 R_107) (x_9603 R_107) (x_9581 R_107) (x_9580 R_107) (x_9579 R_107) (x_10729 R_107) (x_10730 R_107))
	(seq_5 (Seq_4 (Seq_4 x_10729 x_10730) (Star_2 x_9603)) (Seq_4 x_10729 x_10730) (Star_2 x_9603))))
(assert (forall ((x_9582 R_107) (x_9603 R_107) (x_9581 R_107) (x_9580 R_107) (x_9579 R_107) (x_10761 R_107))
	(seq_5 (Seq_4 (Star_2 x_10761) (Star_2 x_9603)) (Star_2 x_10761) (Star_2 x_9603))))
(declare-fun rev_5 (R_107 R_107) Bool)
(assert (forall ((x_11588 R_107) (a_16 R_107))
	(=> (rev_5 x_11588 a_16) (rev_5 (Star_2 x_11588) (Star_2 a_16)))))
(assert (forall ((x_11590 R_107) (x_11591 R_107) (c_5 R_107) (b_12 R_107))
	(=> (and (rev_5 x_11590 b_12) (rev_5 x_11591 c_5)) (rev_5 (Seq_4 x_11590 x_11591) (Seq_4 c_5 b_12)))))
(assert (forall ((x_11593 R_107) (x_11594 R_107) (a_17 R_107) (b_13 R_107))
	(=> (and (rev_5 x_11593 a_17) (rev_5 x_11594 b_13)) (rev_5 (Plus_8 x_11593 x_11594) (Plus_8 a_17 b_13)))))
(assert (forall ((x_9584 R_107) (x_10762 A_15))
	(rev_5 (Atom_2 x_10762) (Atom_2 x_10762))))
(assert (forall ((x_9584 R_107))
	(rev_5 Eps_4 Eps_4)))
(assert (forall ((x_9584 R_107))
	(rev_5 Nil_82 Nil_82)))
(declare-fun plus_9 (R_107 R_107 R_107) Bool)
(assert (forall ((x_11598 R_107))
	(plus_9 x_11598 Nil_82 x_11598)))
(assert (forall ((x_9586 R_107) (x_10769 A_15))
	(plus_9 (Atom_2 x_10769) (Atom_2 x_10769) Nil_82)))
(assert (forall ((x_9586 R_107))
	(plus_9 Eps_4 Eps_4 Nil_82)))
(assert (forall ((x_9586 R_107) (x_10770 R_107) (x_10771 R_107))
	(plus_9 (Plus_8 x_10770 x_10771) (Plus_8 x_10770 x_10771) Nil_82)))
(assert (forall ((x_9586 R_107) (x_10772 R_107) (x_10773 R_107))
	(plus_9 (Seq_4 x_10772 x_10773) (Seq_4 x_10772 x_10773) Nil_82)))
(assert (forall ((x_9586 R_107) (x_10774 R_107))
	(plus_9 (Star_2 x_10774) (Star_2 x_10774) Nil_82)))
(assert (forall ((x_9587 R_107) (x_10763 A_15) (x_9586 R_107) (x_10775 A_15))
	(plus_9 (Plus_8 (Atom_2 x_10775) (Atom_2 x_10763)) (Atom_2 x_10775) (Atom_2 x_10763))))
(assert (forall ((x_9587 R_107) (x_10763 A_15) (x_9586 R_107))
	(plus_9 (Plus_8 Eps_4 (Atom_2 x_10763)) Eps_4 (Atom_2 x_10763))))
(assert (forall ((x_9587 R_107) (x_10763 A_15) (x_9586 R_107) (x_10776 R_107) (x_10777 R_107))
	(plus_9 (Plus_8 (Plus_8 x_10776 x_10777) (Atom_2 x_10763)) (Plus_8 x_10776 x_10777) (Atom_2 x_10763))))
(assert (forall ((x_9587 R_107) (x_10763 A_15) (x_9586 R_107) (x_10778 R_107) (x_10779 R_107))
	(plus_9 (Plus_8 (Seq_4 x_10778 x_10779) (Atom_2 x_10763)) (Seq_4 x_10778 x_10779) (Atom_2 x_10763))))
(assert (forall ((x_9587 R_107) (x_10763 A_15) (x_9586 R_107) (x_10780 R_107))
	(plus_9 (Plus_8 (Star_2 x_10780) (Atom_2 x_10763)) (Star_2 x_10780) (Atom_2 x_10763))))
(assert (forall ((x_9587 R_107) (x_9586 R_107) (x_10781 A_15))
	(plus_9 (Plus_8 (Atom_2 x_10781) Eps_4) (Atom_2 x_10781) Eps_4)))
(assert (forall ((x_9587 R_107) (x_9586 R_107))
	(plus_9 (Plus_8 Eps_4 Eps_4) Eps_4 Eps_4)))
(assert (forall ((x_9587 R_107) (x_9586 R_107) (x_10782 R_107) (x_10783 R_107))
	(plus_9 (Plus_8 (Plus_8 x_10782 x_10783) Eps_4) (Plus_8 x_10782 x_10783) Eps_4)))
(assert (forall ((x_9587 R_107) (x_9586 R_107) (x_10784 R_107) (x_10785 R_107))
	(plus_9 (Plus_8 (Seq_4 x_10784 x_10785) Eps_4) (Seq_4 x_10784 x_10785) Eps_4)))
(assert (forall ((x_9587 R_107) (x_9586 R_107) (x_10786 R_107))
	(plus_9 (Plus_8 (Star_2 x_10786) Eps_4) (Star_2 x_10786) Eps_4)))
(assert (forall ((x_9587 R_107) (x_10764 R_107) (x_10765 R_107) (x_9586 R_107) (x_10787 A_15))
	(plus_9 (Plus_8 (Atom_2 x_10787) (Plus_8 x_10764 x_10765)) (Atom_2 x_10787) (Plus_8 x_10764 x_10765))))
(assert (forall ((x_9587 R_107) (x_10764 R_107) (x_10765 R_107) (x_9586 R_107))
	(plus_9 (Plus_8 Eps_4 (Plus_8 x_10764 x_10765)) Eps_4 (Plus_8 x_10764 x_10765))))
(assert (forall ((x_9587 R_107) (x_10764 R_107) (x_10765 R_107) (x_9586 R_107) (x_10788 R_107) (x_10789 R_107))
	(plus_9 (Plus_8 (Plus_8 x_10788 x_10789) (Plus_8 x_10764 x_10765)) (Plus_8 x_10788 x_10789) (Plus_8 x_10764 x_10765))))
(assert (forall ((x_9587 R_107) (x_10764 R_107) (x_10765 R_107) (x_9586 R_107) (x_10790 R_107) (x_10791 R_107))
	(plus_9 (Plus_8 (Seq_4 x_10790 x_10791) (Plus_8 x_10764 x_10765)) (Seq_4 x_10790 x_10791) (Plus_8 x_10764 x_10765))))
(assert (forall ((x_9587 R_107) (x_10764 R_107) (x_10765 R_107) (x_9586 R_107) (x_10792 R_107))
	(plus_9 (Plus_8 (Star_2 x_10792) (Plus_8 x_10764 x_10765)) (Star_2 x_10792) (Plus_8 x_10764 x_10765))))
(assert (forall ((x_9587 R_107) (x_10766 R_107) (x_10767 R_107) (x_9586 R_107) (x_10793 A_15))
	(plus_9 (Plus_8 (Atom_2 x_10793) (Seq_4 x_10766 x_10767)) (Atom_2 x_10793) (Seq_4 x_10766 x_10767))))
(assert (forall ((x_9587 R_107) (x_10766 R_107) (x_10767 R_107) (x_9586 R_107))
	(plus_9 (Plus_8 Eps_4 (Seq_4 x_10766 x_10767)) Eps_4 (Seq_4 x_10766 x_10767))))
(assert (forall ((x_9587 R_107) (x_10766 R_107) (x_10767 R_107) (x_9586 R_107) (x_10794 R_107) (x_10795 R_107))
	(plus_9 (Plus_8 (Plus_8 x_10794 x_10795) (Seq_4 x_10766 x_10767)) (Plus_8 x_10794 x_10795) (Seq_4 x_10766 x_10767))))
(assert (forall ((x_9587 R_107) (x_10766 R_107) (x_10767 R_107) (x_9586 R_107) (x_10796 R_107) (x_10797 R_107))
	(plus_9 (Plus_8 (Seq_4 x_10796 x_10797) (Seq_4 x_10766 x_10767)) (Seq_4 x_10796 x_10797) (Seq_4 x_10766 x_10767))))
(assert (forall ((x_9587 R_107) (x_10766 R_107) (x_10767 R_107) (x_9586 R_107) (x_10798 R_107))
	(plus_9 (Plus_8 (Star_2 x_10798) (Seq_4 x_10766 x_10767)) (Star_2 x_10798) (Seq_4 x_10766 x_10767))))
(assert (forall ((x_9587 R_107) (x_10768 R_107) (x_9586 R_107) (x_10799 A_15))
	(plus_9 (Plus_8 (Atom_2 x_10799) (Star_2 x_10768)) (Atom_2 x_10799) (Star_2 x_10768))))
(assert (forall ((x_9587 R_107) (x_10768 R_107) (x_9586 R_107))
	(plus_9 (Plus_8 Eps_4 (Star_2 x_10768)) Eps_4 (Star_2 x_10768))))
(assert (forall ((x_9587 R_107) (x_10768 R_107) (x_9586 R_107) (x_10800 R_107) (x_10801 R_107))
	(plus_9 (Plus_8 (Plus_8 x_10800 x_10801) (Star_2 x_10768)) (Plus_8 x_10800 x_10801) (Star_2 x_10768))))
(assert (forall ((x_9587 R_107) (x_10768 R_107) (x_9586 R_107) (x_10802 R_107) (x_10803 R_107))
	(plus_9 (Plus_8 (Seq_4 x_10802 x_10803) (Star_2 x_10768)) (Seq_4 x_10802 x_10803) (Star_2 x_10768))))
(assert (forall ((x_9587 R_107) (x_10768 R_107) (x_9586 R_107) (x_10804 R_107))
	(plus_9 (Plus_8 (Star_2 x_10804) (Star_2 x_10768)) (Star_2 x_10804) (Star_2 x_10768))))
(declare-fun eqA_2 (Bool_97 A_15 A_15) Bool)
(assert (eqA_2 true_97 Y_450 Y_450))
(assert (eqA_2 false_97 Y_450 X_9577))
(assert (eqA_2 false_97 X_9577 Y_450))
(assert (eqA_2 true_97 X_9577 X_9577))
(declare-fun eps_5 (Bool_97 R_107) Bool)
(assert (forall ((y_454 R_107))
	(eps_5 true_97 (Star_2 y_454))))
(assert (forall ((x_11634 Bool_97) (x_11635 Bool_97) (x_11636 Bool_97) (r_108 R_107) (q_13 R_107))
	(=> (and (eps_5 x_11635 r_108) (eps_5 x_11636 q_13) (and_97 x_11634 x_11635 x_11636)) (eps_5 x_11634 (Seq_4 r_108 q_13)))))
(assert (forall ((x_11637 Bool_97) (x_11638 Bool_97) (x_11639 Bool_97) (p_31 R_107) (q_14 R_107))
	(=> (and (eps_5 x_11638 p_31) (eps_5 x_11639 q_14) (or_98 x_11637 x_11638 x_11639)) (eps_5 x_11637 (Plus_8 p_31 q_14)))))
(assert (eps_5 true_97 Eps_4))
(assert (forall ((x_9590 R_107) (x_10805 A_15))
	(eps_5 false_97 (Atom_2 x_10805))))
(assert (forall ((x_9590 R_107))
	(eps_5 false_97 Nil_82)))
(declare-fun epsR_2 (R_107 R_107) Bool)
(assert (forall ((x_9591 R_107))
	(=> (eps_5 true_97 x_9591) (epsR_2 Eps_4 x_9591))))
(assert (forall ((x_9591 R_107))
	(=> (eps_5 false_97 x_9591) (epsR_2 Nil_82 x_9591))))
(declare-fun step_2 (R_107 R_107 A_15) Bool)
(assert (forall ((x_11647 R_107) (x_11648 R_107) (p_32 R_107) (y_455 A_15))
	(=> (and (step_2 x_11648 p_32 y_455) (seq_5 x_11647 x_11648 (Star_2 p_32))) (step_2 x_11647 (Star_2 p_32) y_455))))
(assert (forall ((x_11650 R_107) (x_11651 R_107) (x_11652 R_107) (x_11653 R_107) (x_11654 R_107) (x_11655 R_107) (r_109 R_107) (q_15 R_107) (y_455 A_15))
	(=> (and (step_2 x_11651 r_109 y_455) (seq_5 x_11652 x_11651 q_15) (epsR_2 x_11653 r_109) (step_2 x_11654 q_15 y_455) (seq_5 x_11655 x_11653 x_11654) (plus_9 x_11650 x_11652 x_11655)) (step_2 x_11650 (Seq_4 r_109 q_15) y_455))))
(assert (forall ((x_11657 R_107) (x_11658 R_107) (x_11659 R_107) (p_33 R_107) (q_16 R_107) (y_455 A_15))
	(=> (and (step_2 x_11658 p_33 y_455) (step_2 x_11659 q_16 y_455) (plus_9 x_11657 x_11658 x_11659)) (step_2 x_11657 (Plus_8 p_33 q_16) y_455))))
(assert (forall ((a_18 A_15) (y_455 A_15))
	(=> (eqA_2 true_97 a_18 y_455) (step_2 Eps_4 (Atom_2 a_18) y_455))))
(assert (forall ((a_18 A_15) (y_455 A_15))
	(=> (eqA_2 false_97 a_18 y_455) (step_2 Nil_82 (Atom_2 a_18) y_455))))
(assert (forall ((x_9593 R_107) (y_455 A_15))
	(step_2 Nil_82 Eps_4 y_455)))
(assert (forall ((x_9593 R_107) (y_455 A_15))
	(step_2 Nil_82 Nil_82 y_455)))
(declare-fun recognise_2 (Bool_97 R_107 list_78) Bool)
(assert (forall ((x_11667 Bool_97) (x_11668 R_107) (z_517 A_15) (xs_157 list_78) (x_9594 R_107))
	(=> (and (step_2 x_11668 x_9594 z_517) (recognise_2 x_11667 x_11668 xs_157)) (recognise_2 x_11667 x_9594 (cons_78 z_517 xs_157)))))
(assert (forall ((x_11670 Bool_97) (x_9594 R_107))
	(=> (eps_5 x_11670 x_9594) (recognise_2 x_11670 x_9594 nil_83))))
(declare-fun x_9595 (list_78 list_78 list_78) Bool)
(assert (forall ((x_11673 list_78) (z_518 A_15) (xs_158 list_78) (y_457 list_78))
	(=> (x_9595 x_11673 xs_158 y_457) (x_9595 (cons_78 z_518 x_11673) (cons_78 z_518 xs_158) y_457))))
(assert (forall ((x_11674 list_78))
	(x_9595 x_11674 nil_83 x_11674)))
(declare-fun reverse_0 (list_78 list_78) Bool)
(assert (forall ((x_11675 list_78) (x_11676 list_78) (y_458 A_15) (xs_159 list_78))
	(=> (and (reverse_0 x_11676 xs_159) (x_9595 x_11675 x_11676 (cons_78 y_458 nil_83))) (reverse_0 x_11675 (cons_78 y_458 xs_159)))))
(assert (reverse_0 nil_83 nil_83))
(assert (forall ((x_11679 R_107) (x_11680 Bool_97) (x_11681 list_78) (x_11682 Bool_97) (r_110 R_107) (s_175 list_78))
	(=> (and true (diseqBool_45 x_11680 x_11682) (rev_5 x_11679 r_110) (recognise_2 x_11680 x_11679 s_175) (reverse_0 x_11681 s_175) (recognise_2 x_11682 r_110 x_11681)) false)))
(check-sat)
